NAME : XML100_3334_01
DIMENSION : 101
NB_CLUSTERS : 3
CLUSTERING_ALG : KMedoids
CLUSTERING_PARAMS : k(2)
CLUSTERS
1 0
2 3 4 5 7 9 11 13 14 15 16 17 18 20 22 23 24 25 26 27 28 29 30 31 32 33 34 35 39 40 41 42 44 45 46 47 48 50 52 53 54 55 56 58 62 63 64 65 67 68 69 70 72 73 74 77 80 85 86 88 89 90 91 93 94 95 96 97 98 100
3 1 2 6 8 10 12 19 21 36 37 38 43 49 51 57 59 60 61 66 71 75 76 78 79 81 82 83 84 87 92 99
EOF